p cnf 11 20
11 10 -2 0
-11 8 7 0
-11 -7 -1 0
10 9 8 0
10 9 -2 0
10 -9 2 0
-10 9 -1 0
-10 8 6 0
10 -8 2 0
10 -8 1 0
-10 -4 3 0
-9 -5 -1 0
8 7 -5 0
-8 -7 4 0
8 -6 2 0
8 -4 -2 0
-7 -6 -4 0
7 6 -2 0
7 -5 -4 0
6 2 1 0
